
Gurobi 9.1.1 (win64) logging started Sat Apr 16 21:12:44 2022

Changed value of parameter LogFile to ./Log/Pattern_Appro_solver_250_order_25_batch.log
   Prev:   Default: 
Gurobi Optimizer version 9.1.1 build v9.1.1rc0 (win64)
Thread count: 6 physical cores, 12 logical processors, using up to 12 threads
Optimize a model with 1385 rows, 5200 columns and 19150 nonzeros
Model fingerprint: 0x274dce27
Variable types: 0 continuous, 5200 integer (4400 binary)
Coefficient statistics:
  Matrix range     [1e+00, 1e+01]
  Objective range  [1e+00, 4e+01]
  Bounds range     [1e+00, 1e+01]
  RHS range        [1e+00, 1e+01]
Found heuristic solution: objective 4536.0000000
Presolve removed 155 rows and 410 columns
Presolve time: 0.02s
Presolved: 1230 rows, 4790 columns, 17200 nonzeros
Variable types: 0 continuous, 4790 integer (4053 binary)

Root relaxation: objective 1.077950e+03, 5827 iterations, 0.11 seconds

    Nodes    |    Current Node    |     Objective Bounds      |     Work
 Expl Unexpl |  Obj  Depth IntInf | Incumbent    BestBd   Gap | It/Node Time

     0     0 1077.95000    0  193 4536.00000 1077.95000  76.2%     -    0s
H    0     0                    3177.0000000 1077.95000  66.1%     -    0s
H    0     0                    3161.0000000 1077.95000  65.9%     -    0s
H    0     0                    3153.0000000 1077.95000  65.8%     -    0s
H    0     0                    3139.0000000 1077.95000  65.7%     -    0s
H    0     0                    3081.0000000 1077.95000  65.0%     -    0s
H    0     0                    3075.0000000 1077.95000  64.9%     -    0s
H    0     0                    3036.0000000 1077.95000  64.5%     -    0s
H    0     0                    2954.0000000 1077.95000  63.5%     -    0s
H    0     0                    2919.0000000 1077.95000  63.1%     -    0s
H    0     0                    2908.0000000 1077.95000  62.9%     -    0s
     0     0 1120.78273    0  360 2908.00000 1120.78273  61.5%     -    0s
H    0     0                    2675.0000000 1120.78273  58.1%     -    0s
H    0     0                    2629.0000000 1120.78273  57.4%     -    0s
     0     0 1122.04726    0  371 2629.00000 1122.04726  57.3%     -    0s
H    0     0                    2571.0000000 1122.04726  56.4%     -    0s
     0     0 1122.04974    0  372 2571.00000 1122.04974  56.4%     -    0s
H    0     0                    2557.0000000 1122.04974  56.1%     -    0s
H    0     0                    2531.0000000 1122.04974  55.7%     -    0s
H    0     0                    2516.0000000 1122.04974  55.4%     -    0s
H    0     0                    2495.0000000 1122.04974  55.0%     -    0s
     0     0 1153.33123    0  490 2495.00000 1153.33123  53.8%     -    0s
H    0     0                    2481.0000000 1153.33123  53.5%     -    0s
     0     0 1156.89972    0  486 2481.00000 1156.89972  53.4%     -    0s
     0     0 1157.89051    0  515 2481.00000 1157.89051  53.3%     -    0s
     0     0 1158.00266    0  524 2481.00000 1158.00266  53.3%     -    0s
H    0     0                    2457.0000000 1158.00266  52.9%     -    0s
     0     0 1158.10403    0  526 2457.00000 1158.10403  52.9%     -    0s
     0     0 1158.11156    0  545 2457.00000 1158.11156  52.9%     -    0s
H    0     0                    2456.0000000 1158.11156  52.8%     -    1s
H    0     0                    2442.0000000 1158.11156  52.6%     -    1s
H    0     0                    2421.0000000 1158.11156  52.2%     -    1s
     0     0 1180.53348    0  660 2421.00000 1180.53348  51.2%     -    1s
H    0     0                    2415.0000000 1180.53348  51.1%     -    1s
H    0     0                    2405.0000000 1180.53348  50.9%     -    1s
     0     0 1183.93086    0  693 2405.00000 1183.93086  50.8%     -    1s
H    0     0                    2397.0000000 1183.93086  50.6%     -    1s
H    0     0                    2383.0000000 1183.93086  50.3%     -    1s
     0     0 1185.19535    0  704 2383.00000 1185.19535  50.3%     -    1s
H    0     0                    2369.0000000 1185.19535  50.0%     -    1s
     0     0 1185.40569    0  726 2369.00000 1185.40569  50.0%     -    1s
     0     0 1185.63332    0  709 2369.00000 1185.63332  50.0%     -    1s
H    0     0                    2367.0000000 1185.63332  49.9%     -    1s
     0     0 1185.66869    0  717 2367.00000 1185.66869  49.9%     -    1s
H    0     0                    2361.0000000 1185.66869  49.8%     -    2s
     0     0 1198.74326    0  927 2361.00000 1198.74326  49.2%     -    2s
     0     0 1203.63420    0 1045 2361.00000 1203.63420  49.0%     -    3s
     0     0 1205.04616    0 1091 2361.00000 1205.04616  49.0%     -    3s
     0     0 1205.71007    0 1124 2361.00000 1205.71007  48.9%     -    4s
     0     0 1205.89431    0 1138 2361.00000 1205.89431  48.9%     -    4s
     0     0 1205.95072    0 1145 2361.00000 1205.95072  48.9%     -    4s
H    0     0                    2340.0000000 1205.95072  48.5%     -    5s
     0     0 1214.02080    0 1233 2340.00000 1214.02080  48.1%     -    5s
     0     0 1216.40922    0 1318 2340.00000 1216.40922  48.0%     -    6s
H    0     0                    2339.0000000 1216.40922  48.0%     -    7s
H    0     0                    2328.0000000 1216.40922  47.7%     -    7s
     0     0 1217.71868    0 1376 2328.00000 1217.71868  47.7%     -    7s
H    0     0                    2323.0000000 1217.71868  47.6%     -    8s
     0     0 1218.14709    0 1416 2323.00000 1218.14709  47.6%     -    8s
     0     0 1218.26799    0 1419 2323.00000 1218.26799  47.6%     -    8s
H    0     0                    2314.0000000 1218.26799  47.4%     -   11s
H    0     0                    2313.0000000 1218.26799  47.3%     -   11s
     0     0 1222.78931    0 1687 2313.00000 1222.78931  47.1%     -   11s
H    0     0                    2295.0000000 1222.78931  46.7%     -   13s
H    0     0                    2288.0000000 1222.78931  46.6%     -   13s
     0     0 1225.76891    0 1796 2288.00000 1225.76891  46.4%     -   13s
     0     0 1227.11955    0 1839 2288.00000 1227.11955  46.4%     -   15s
     0     0 1227.72437    0 1894 2288.00000 1227.72437  46.3%     -   16s
     0     0 1227.98221    0 1990 2288.00000 1227.98221  46.3%     -   17s
     0     0 1228.19151    0 1986 2288.00000 1228.19151  46.3%     -   18s
H    0     0                    2286.0000000 1228.19151  46.3%     -   23s
     0     0 1231.17388    0 2141 2286.00000 1231.17388  46.1%     -   23s
     0     0 1232.33713    0 2162 2286.00000 1232.33713  46.1%     -   25s
     0     0 1232.77071    0 2154 2286.00000 1232.77071  46.1%     -   27s
H    0     0                    2280.0000000 1232.77071  45.9%     -   28s
H    0     0                    2279.0000000 1232.77071  45.9%     -   28s
     0     0 1233.04188    0 2257 2279.00000 1233.04188  45.9%     -   28s
H    0     0                    2272.0000000 1233.04188  45.7%     -   33s
     0     0 1235.37488    0 2394 2272.00000 1235.37488  45.6%     -   33s
H    0     0                    2265.0000000 1235.37488  45.5%     -   36s
     0     0 1236.47412    0 2541 2265.00000 1236.47412  45.4%     -   36s
H    0     0                    2257.0000000 1236.47412  45.2%     -   38s
     0     0 1237.05926    0 2498 2257.00000 1237.05926  45.2%     -   38s
     0     0 1237.36089    0 2522 2257.00000 1237.36089  45.2%     -   40s
     0     0 1239.33259    0 2700 2257.00000 1239.33259  45.1%     -   45s
     0     0 1240.43344    0 2668 2257.00000 1240.43344  45.0%     -   48s
     0     0 1241.21370    0 2771 2257.00000 1241.21370  45.0%     -   51s
     0     0 1241.61138    0 2864 2257.00000 1241.61138  45.0%     -   53s
     0     0 1241.87211    0 2882 2257.00000 1241.87211  45.0%     -   55s
     0     0 1243.49501    0 3042 2257.00000 1243.49501  44.9%     -   60s

Cutting planes:
  Gomory: 98
  Cover: 1612
  Implied bound: 167
  Clique: 452
  MIR: 61
  StrongCG: 2
  Flow cover: 104
  GUB cover: 4
  Zero half: 27
  Relax-and-lift: 11

Explored 1 nodes (85608 simplex iterations) in 60.04 seconds
Thread count was 12 (of 12 available processors)

Solution count 10: 2257 2265 2272 ... 2314

Time limit reached
Best objective 2.257000000000e+03, best bound 1.244000000000e+03, gap 44.8826%
